s td 40 21 60
b 1 35 37 52
b 2 1 3 5 6 10 12 13 14 18 25 31 33 37 38 43 44 47 48 50 54 60
b 3 3 5 6 10 12 13 14 18 23 25 33 37 38 43 44 47 48 50 54 60
b 4 2 3 5 6 10 12 13 14 18 23 25 37 38 43 44 47 48 50 54 60
b 5 2 3 5 6 12 13 14 23 25 26 37 38 43 44 47 48 50 54 60
b 6 2 3 6 12 13 14 23 25 26 37 38 43 44 46 47 48 50 54 60
b 7 2 3 6 12 14 23 25 26 37 38 43 44 46 48 50 54 55 60
b 8 2 3 6 12 14 23 25 26 37 38 43 46 48 50 53 54 55
b 9 2 3 6 12 14 16 23 25 26 37 38 43 46 48 50 53 54
b 10 2 3 6 12 14 16 25 26 37 40 43 46 48 50 53 54
b 11 2 3 6 14 16 17 25 26 37 40 46 48 50 53 54
b 12 2 3 6 9 14 16 17 37 40 46 48 53 54
b 13 3 4 9 14 16 17 37 40 46 48 53 54
b 14 4 14 27 40 53 54
b 15 3 4 9 36 37 46
b 16 29 40 43 54
b 17 6 12 16 26 37 40 48 52 53
b 18 6 26 30 37 40 48 52
b 19 16 23 39 43 53
b 20 44 46 49 55 60
b 21 12 23 54 55 57 60
b 22 6 13 26 50 58
b 23 1 5 10 12 13 14 18 25 31 33 37 38 43 44 47 48 50 54 56 60
b 24 1 5 10 12 13 14 18 21 25 31 37 38 43 44 47 48 50 54 56 60
b 25 1 5 10 12 13 14 18 21 22 31 37 43 44 47 48 50 54 56 60
b 26 10 12 13 14 18 21 22 24 37 43 44 47 48 50 54 56 60
b 27 7 13 14 18 21 22 24 37 43 44 47 48 50 54 56 60
b 28 7 18 21 22 37 43 44 47 48 50 54 56 59 60
b 29 7 11 18 43 47 54 56 59
b 30 22 37 41 44 48 54 59 60
b 31 22 41 45 48 54 59 60
b 32 32 45 48 59
b 33 1 5 10 14 18 19 21 22
b 34 8 10 14 18 19 22
b 35 1 5 20 25 31 33 43 56
b 36 1 20 25 42 56
b 37 1 3 6 10 31 33 38 43 50 51 54 60
b 38 1 28 31 33 38 43 50 51 60
b 39 1 15 28 31 33 43 51
b 40 15 33 34 43 51
1 17
2 3
2 23
2 37
3 4
4 5
5 6
5 22
6 7
7 8
7 20
7 21
8 9
9 10
9 19
10 11
10 16
10 17
11 12
12 13
13 14
13 15
17 18
23 24
23 35
24 25
25 26
25 33
26 27
27 28
28 29
28 30
30 31
31 32
33 34
35 36
37 38
38 39
39 40
